(set-info :Origin "This instance was generated by: BanditFuzz-- an RL fuzzer for SMT solvers" )
(set-info :Author "Joe Scott, Fed Mora, Vijay Ganesh" )
(set-info :Contact "Joe Scott, joseph.scott@uwaterloo.ca")
(set-logic QF_BV)
(declare-const bool_0 Bool)
(declare-const bool_1 Bool)
(declare-const bool_2 Bool)
(declare-const bool_3 Bool)
(declare-const bool_4 Bool)
(declare-const bv_0 (_ BitVec 32))
(declare-const bv_1 (_ BitVec 32))
(declare-const bv_2 (_ BitVec 32))
(declare-const bv_3 (_ BitVec 32))
(declare-const bv_4 (_ BitVec 32))
(assert (and (bvsgt (bvadd #x986fdd5f  #x4dab083d ) (bvadd bv_1 bv_1)) (bvsgt (bvsrem bv_3 bv_0) (bvsub bv_4 bv_3))))
(assert (or (bvslt (bvadd bv_2 bv_4) (bvsdiv #x005328bb  bv_4)) (bvuge (bvshl #x8122c721  #x7e0cf613 ) (bvnor bv_4 bv_4))))
(assert (bvslt (bvsub (bvudiv #xaf592ece  #xceabc9a2 ) (bvadd #x9d5d7b62  bv_4)) (bvlshr (bvxnor #x39705063  bv_1) (bvsmod bv_3 bv_4))))
(assert (bvsgt (bvsmod (bvnand #xbbc60b11  bv_4) (bvudiv #xfe39230e  #x1696806d )) (bvshl (bvsrem bv_3 #xc29b200c ) (bvurem bv_3 bv_0))))
(assert (bvule (bvudiv (bvor bv_3 #x48e247b0 ) (bvlshr #xbeb39b89  bv_4)) (bvnor (bvnand #x7b22c690  bv_3) (bvashr bv_0 #x71a1557c ))))
(check-sat)
(exit)
